tsp_instances/TSP50/instance68.tsp
NODE_COORD_SECTION
0 23 151
1 58 125
2 30 48
3 128 56
4 58 117
5 112 12
6 165 7
7 1 61
8 120 92
9 145 37
10 134 95
11 68 41
12 77 31
13 181 122
14 3 79
15 72 63
16 134 33
17 69 11
18 33 197
19 104 106
20 29 41
21 162 38
22 11 57
23 108 59
24 85 106
25 7 84
26 116 63
27 59 48
28 21 151
29 59 92
30 162 120
31 108 22
32 189 39
33 169 81
34 165 190
35 18 19
36 89 154
37 66 31
38 198 36
39 46 121
40 91 91
41 165 15
42 59 31
43 121 98
44 131 88
45 16 78
46 1 12
47 101 38
48 173 102
49 30 106
