tsp_instances/TSP50/instance68.opt.tour
TOUR_SECTION
1
2
5
40
50
46
26
15
8
23
3
21
47
36
18
13
38
43
12
28
16
30
25
41
20
44
9
11
45
4
27
24
48
32
6
17
10
22
42
7
39
33
34
49
31
14
35
37
19
29
-1